p edge 80 1258
e 1 2
e 1 3
e 1 10
e 1 16
e 1 20
e 1 21
e 1 22
e 1 23
e 1 24
e 1 25
e 1 26
e 1 27
e 1 28
e 1 29
e 1 30
e 1 31
e 1 32
e 1 38
e 1 45
e 1 46
e 1 47
e 1 50
e 1 51
e 1 53
e 1 54
e 1 55
e 1 60
e 1 69
e 1 71
e 1 76
e 1 78
e 1 79
e 1 80
e 2 3
e 2 4
e 2 7
e 2 12
e 2 17
e 2 18
e 2 23
e 2 24
e 2 31
e 2 41
e 2 46
e 2 47
e 2 55
e 2 56
e 2 57
e 2 58
e 2 59
e 2 61
e 2 62
e 2 63
e 2 64
e 2 69
e 2 71
e 2 72
e 2 76
e 3 5
e 3 7
e 3 9
e 3 10
e 3 14
e 3 15
e 3 16
e 3 18
e 3 23
e 3 24
e 3 25
e 3 26
e 3 28
e 3 30
e 3 34
e 3 39
e 3 40
e 3 43
e 3 44
e 3 45
e 3 46
e 3 49
e 3 62
e 3 63
e 3 64
e 3 69
e 3 71
e 3 78
e 3 79
e 4 5
e 4 7
e 4 10
e 4 11
e 4 16
e 4 20
e 4 24
e 4 27
e 4 28
e 4 29
e 4 31
e 4 35
e 4 37
e 4 38
e 4 41
e 4 42
e 4 54
e 4 62
e 4 63
e 4 65
e 4 66
e 4 67
e 4 68
e 4 70
e 4 72
e 4 74
e 4 75
e 4 76
e 4 79
e 5 6
e 5 10
e 5 11
e 5 12
e 5 15
e 5 16
e 5 19
e 5 20
e 5 25
e 5 26
e 5 30
e 5 31
e 5 35
e 5 36
e 5 37
e 5 42
e 5 44
e 5 45
e 5 46
e 5 49
e 5 52
e 5 53
e 5 57
e 5 58
e 5 63
e 5 65
e 5 71
e 5 72
e 5 73
e 5 77
e 6 9
e 6 10
e 6 11
e 6 14
e 6 16
e 6 19
e 6 20
e 6 22
e 6 23
e 6 25
e 6 26
e 6 27
e 6 28
e 6 29
e 6 31
e 6 34
e 6 35
e 6 39
e 6 42
e 6 44
e 6 45
e 6 46
e 6 47
e 6 49
e 6 54
e 6 55
e 6 56
e 6 59
e 6 60
e 6 62
e 6 64
e 6 66
e 6 67
e 6 72
e 6 73
e 6 74
e 6 75
e 6 76
e 6 77
e 6 78
e 6 80
e 7 12
e 7 13
e 7 15
e 7 19
e 7 22
e 7 32
e 7 36
e 7 37
e 7 38
e 7 40
e 7 42
e 7 44
e 7 46
e 7 53
e 7 62
e 7 67
e 7 76
e 7 77
e 7 79
e 8 9
e 8 10
e 8 11
e 8 12
e 8 13
e 8 14
e 8 15
e 8 17
e 8 20
e 8 21
e 8 26
e 8 27
e 8 28
e 8 31
e 8 35
e 8 39
e 8 44
e 8 45
e 8 47
e 8 58
e 8 59
e 8 61
e 8 64
e 8 65
e 8 66
e 8 68
e 8 73
e 8 74
e 9 11
e 9 15
e 9 20
e 9 21
e 9 23
e 9 24
e 9 26
e 9 30
e 9 32
e 9 33
e 9 35
e 9 37
e 9 44
e 9 45
e 9 46
e 9 49
e 9 50
e 9 54
e 9 56
e 9 58
e 9 62
e 9 63
e 9 64
e 9 66
e 9 67
e 9 71
e 9 72
e 9 75
e 9 76
e 9 77
e 10 11
e 10 13
e 10 15
e 10 18
e 10 21
e 10 24
e 10 25
e 10 26
e 10 27
e 10 28
e 10 31
e 10 32
e 10 33
e 10 34
e 10 35
e 10 40
e 10 41
e 10 42
e 10 43
e 10 44
e 10 48
e 10 49
e 10 50
e 10 51
e 10 53
e 10 59
e 10 62
e 10 66
e 10 67
e 10 70
e 10 74
e 10 78
e 10 79
e 10 80
e 11 13
e 11 14
e 11 15
e 11 23
e 11 28
e 11 29
e 11 30
e 11 34
e 11 36
e 11 37
e 11 42
e 11 44
e 11 48
e 11 52
e 11 53
e 11 54
e 11 56
e 11 57
e 11 58
e 11 62
e 11 64
e 11 66
e 11 68
e 11 78
e 12 19
e 12 21
e 12 22
e 12 23
e 12 25
e 12 27
e 12 30
e 12 33
e 12 34
e 12 35
e 12 40
e 12 42
e 12 45
e 12 46
e 12 50
e 12 52
e 12 53
e 12 57
e 12 62
e 12 64
e 12 65
e 12 66
e 12 67
e 12 69
e 12 70
e 12 71
e 12 72
e 12 76
e 12 78
e 13 15
e 13 17
e 13 18
e 13 20
e 13 24
e 13 25
e 13 27
e 13 28
e 13 33
e 13 34
e 13 37
e 13 44
e 13 46
e 13 49
e 13 51
e 13 52
e 13 54
e 13 58
e 13 63
e 13 64
e 13 70
e 13 77
e 13 78
e 13 80
e 14 15
e 14 17
e 14 21
e 14 22
e 14 24
e 14 25
e 14 30
e 14 31
e 14 32
e 14 34
e 14 38
e 14 43
e 14 44
e 14 46
e 14 47
e 14 51
e 14 52
e 14 64
e 14 66
e 14 69
e 14 70
e 14 73
e 14 75
e 14 78
e 14 80
e 15 20
e 15 22
e 15 25
e 15 26
e 15 32
e 15 33
e 15 35
e 15 37
e 15 39
e 15 41
e 15 42
e 15 43
e 15 48
e 15 51
e 15 53
e 15 55
e 15 57
e 15 58
e 15 64
e 15 66
e 15 69
e 15 70
e 15 73
e 15 74
e 15 76
e 15 77
e 15 80
e 16 25
e 16 28
e 16 29
e 16 34
e 16 36
e 16 38
e 16 41
e 16 42
e 16 43
e 16 44
e 16 45
e 16 50
e 16 52
e 16 55
e 16 56
e 16 58
e 16 61
e 16 66
e 16 67
e 16 69
e 16 71
e 16 72
e 16 73
e 16 74
e 16 80
e 17 21
e 17 28
e 17 29
e 17 31
e 17 36
e 17 40
e 17 41
e 17 46
e 17 48
e 17 49
e 17 50
e 17 51
e 17 53
e 17 58
e 17 60
e 17 61
e 17 62
e 17 64
e 17 65
e 17 67
e 17 68
e 17 70
e 17 72
e 17 73
e 17 74
e 17 76
e 17 79
e 18 21
e 18 24
e 18 25
e 18 28
e 18 29
e 18 35
e 18 41
e 18 43
e 18 44
e 18 47
e 18 49
e 18 53
e 18 57
e 18 58
e 18 59
e 18 64
e 18 69
e 18 70
e 18 73
e 18 75
e 18 76
e 18 77
e 18 80
e 19 21
e 19 22
e 19 24
e 19 27
e 19 28
e 19 37
e 19 39
e 19 40
e 19 43
e 19 45
e 19 46
e 19 52
e 19 54
e 19 55
e 19 58
e 19 59
e 19 65
e 19 66
e 19 68
e 19 69
e 19 70
e 19 71
e 19 73
e 19 78
e 20 23
e 20 24
e 20 26
e 20 27
e 20 28
e 20 29
e 20 31
e 20 33
e 20 36
e 20 43
e 20 44
e 20 45
e 20 48
e 20 49
e 20 52
e 20 53
e 20 66
e 20 68
e 20 69
e 20 72
e 20 77
e 20 79
e 20 80
e 21 23
e 21 24
e 21 25
e 21 27
e 21 34
e 21 41
e 21 45
e 21 46
e 21 48
e 21 49
e 21 52
e 21 56
e 21 57
e 21 61
e 21 62
e 21 65
e 21 67
e 21 69
e 21 70
e 21 71
e 21 72
e 21 75
e 21 77
e 21 79
e 21 80
e 22 24
e 22 29
e 22 40
e 22 43
e 22 51
e 22 53
e 22 54
e 22 56
e 22 58
e 22 64
e 22 66
e 22 70
e 22 71
e 22 74
e 22 75
e 22 79
e 22 80
e 23 24
e 23 28
e 23 29
e 23 30
e 23 32
e 23 36
e 23 38
e 23 42
e 23 43
e 23 48
e 23 49
e 23 53
e 23 56
e 23 60
e 23 61
e 23 65
e 23 66
e 23 69
e 23 71
e 23 73
e 23 77
e 23 78
e 23 80
e 24 25
e 24 29
e 24 30
e 24 31
e 24 32
e 24 36
e 24 37
e 24 38
e 24 41
e 24 42
e 24 45
e 24 46
e 24 48
e 24 49
e 24 55
e 24 56
e 24 58
e 24 60
e 24 62
e 24 64
e 24 68
e 24 70
e 24 72
e 24 73
e 24 78
e 25 28
e 25 29
e 25 30
e 25 31
e 25 32
e 25 34
e 25 35
e 25 36
e 25 37
e 25 38
e 25 40
e 25 42
e 25 49
e 25 50
e 25 51
e 25 52
e 25 55
e 25 56
e 25 57
e 25 62
e 25 66
e 25 71
e 25 72
e 25 75
e 25 76
e 25 78
e 25 80
e 26 30
e 26 31
e 26 33
e 26 35
e 26 36
e 26 38
e 26 45
e 26 46
e 26 50
e 26 52
e 26 53
e 26 55
e 26 57
e 26 58
e 26 59
e 26 60
e 26 63
e 26 64
e 26 69
e 26 71
e 26 75
e 26 76
e 26 79
e 27 28
e 27 36
e 27 37
e 27 39
e 27 40
e 27 41
e 27 43
e 27 44
e 27 46
e 27 48
e 27 53
e 27 54
e 27 56
e 27 58
e 27 61
e 27 62
e 27 65
e 27 67
e 27 71
e 27 74
e 27 76
e 27 77
e 27 79
e 28 33
e 28 34
e 28 40
e 28 41
e 28 43
e 28 47
e 28 50
e 28 51
e 28 52
e 28 57
e 28 61
e 28 64
e 28 65
e 28 66
e 28 70
e 28 71
e 28 74
e 28 76
e 28 78
e 28 79
e 29 31
e 29 35
e 29 38
e 29 40
e 29 45
e 29 47
e 29 49
e 29 50
e 29 54
e 29 57
e 29 59
e 29 62
e 29 63
e 29 67
e 29 71
e 29 79
e 30 31
e 30 33
e 30 34
e 30 37
e 30 46
e 30 47
e 30 49
e 30 50
e 30 53
e 30 54
e 30 58
e 30 59
e 30 62
e 30 72
e 30 73
e 30 76
e 30 77
e 31 32
e 31 35
e 31 46
e 31 47
e 31 49
e 31 50
e 31 53
e 31 54
e 31 58
e 31 59
e 31 60
e 31 61
e 31 62
e 31 68
e 31 69
e 31 74
e 31 77
e 31 80
e 32 33
e 32 36
e 32 37
e 32 38
e 32 42
e 32 43
e 32 46
e 32 47
e 32 48
e 32 49
e 32 51
e 32 55
e 32 56
e 32 58
e 32 59
e 32 60
e 32 61
e 32 62
e 32 63
e 32 64
e 32 67
e 32 68
e 32 70
e 32 71
e 32 72
e 32 76
e 32 79
e 32 80
e 33 34
e 33 38
e 33 40
e 33 41
e 33 43
e 33 46
e 33 47
e 33 48
e 33 51
e 33 53
e 33 54
e 33 58
e 33 61
e 33 62
e 33 65
e 33 68
e 33 72
e 33 75
e 34 35
e 34 36
e 34 42
e 34 43
e 34 44
e 34 46
e 34 50
e 34 53
e 34 61
e 34 62
e 34 64
e 34 69
e 34 72
e 34 73
e 34 77
e 35 43
e 35 45
e 35 46
e 35 50
e 35 55
e 35 56
e 35 59
e 35 60
e 35 62
e 35 63
e 35 64
e 35 68
e 35 71
e 35 73
e 35 75
e 35 76
e 35 78
e 35 80
e 36 38
e 36 39
e 36 40
e 36 41
e 36 44
e 36 52
e 36 53
e 36 54
e 36 56
e 36 62
e 36 66
e 36 67
e 36 68
e 36 72
e 36 75
e 37 40
e 37 42
e 37 43
e 37 47
e 37 49
e 37 52
e 37 55
e 37 56
e 37 57
e 37 60
e 37 66
e 37 67
e 37 68
e 37 69
e 37 70
e 37 73
e 37 74
e 37 75
e 37 76
e 37 77
e 38 44
e 38 45
e 38 53
e 38 55
e 38 56
e 38 57
e 38 59
e 38 60
e 38 64
e 38 66
e 38 67
e 38 69
e 38 77
e 38 78
e 39 45
e 39 46
e 39 47
e 39 48
e 39 49
e 39 51
e 39 54
e 39 56
e 39 57
e 39 58
e 39 62
e 39 63
e 39 66
e 39 67
e 39 71
e 39 73
e 39 74
e 39 76
e 39 77
e 39 80
e 40 43
e 40 44
e 40 46
e 40 61
e 40 62
e 40 70
e 40 72
e 40 75
e 40 77
e 40 78
e 40 79
e 40 80
e 41 43
e 41 46
e 41 49
e 41 52
e 41 53
e 41 54
e 41 57
e 41 59
e 41 61
e 41 62
e 41 64
e 41 66
e 41 71
e 41 73
e 41 75
e 41 77
e 42 44
e 42 45
e 42 50
e 42 54
e 42 58
e 42 60
e 42 63
e 42 67
e 42 69
e 42 71
e 42 74
e 42 76
e 42 79
e 43 44
e 43 45
e 43 48
e 43 49
e 43 50
e 43 51
e 43 55
e 43 56
e 43 61
e 43 64
e 43 66
e 43 71
e 43 74
e 43 75
e 43 76
e 43 77
e 43 78
e 44 45
e 44 46
e 44 48
e 44 51
e 44 52
e 44 57
e 44 63
e 44 64
e 44 67
e 44 69
e 44 71
e 45 48
e 45 52
e 45 53
e 45 58
e 45 60
e 45 61
e 45 64
e 45 67
e 45 72
e 45 73
e 45 75
e 45 76
e 46 52
e 46 57
e 46 59
e 46 60
e 46 67
e 46 68
e 46 70
e 46 73
e 46 74
e 46 75
e 47 55
e 47 57
e 47 58
e 47 61
e 47 63
e 47 66
e 47 67
e 47 73
e 47 74
e 47 76
e 47 77
e 47 78
e 48 51
e 48 53
e 48 54
e 48 58
e 48 59
e 48 60
e 48 63
e 48 66
e 48 74
e 48 76
e 48 77
e 48 79
e 49 53
e 49 58
e 49 60
e 49 62
e 49 63
e 49 64
e 49 66
e 49 67
e 49 70
e 49 71
e 49 72
e 49 74
e 49 76
e 49 78
e 50 51
e 50 56
e 50 60
e 50 62
e 50 63
e 50 64
e 50 67
e 50 68
e 50 70
e 50 71
e 50 72
e 50 76
e 50 77
e 50 79
e 50 80
e 51 54
e 51 57
e 51 59
e 51 60
e 51 61
e 51 62
e 51 65
e 51 69
e 51 71
e 51 73
e 51 76
e 51 78
e 51 79
e 51 80
e 52 53
e 52 57
e 52 59
e 52 63
e 52 64
e 52 65
e 52 71
e 52 72
e 52 74
e 52 75
e 52 76
e 52 77
e 53 54
e 53 61
e 53 62
e 53 63
e 53 64
e 53 69
e 53 70
e 53 71
e 53 72
e 53 73
e 53 78
e 54 55
e 54 57
e 54 60
e 54 62
e 54 64
e 54 67
e 54 68
e 54 69
e 54 72
e 54 73
e 54 77
e 54 79
e 54 80
e 55 56
e 55 60
e 55 63
e 55 64
e 55 66
e 55 67
e 55 69
e 55 71
e 55 72
e 55 73
e 55 75
e 55 77
e 55 78
e 56 58
e 56 61
e 56 62
e 56 71
e 56 72
e 56 76
e 56 80
e 57 58
e 57 61
e 57 62
e 57 65
e 57 67
e 57 68
e 57 69
e 57 73
e 57 75
e 57 76
e 57 77
e 57 79
e 57 80
e 58 59
e 58 61
e 58 62
e 58 63
e 58 65
e 58 67
e 58 72
e 58 73
e 59 62
e 59 64
e 59 65
e 59 66
e 59 70
e 59 72
e 59 75
e 59 76
e 59 77
e 59 79
e 60 62
e 60 65
e 60 72
e 60 77
e 60 80
e 61 62
e 61 65
e 61 70
e 61 71
e 61 73
e 61 77
e 62 63
e 62 67
e 62 68
e 62 71
e 62 72
e 62 73
e 62 75
e 62 76
e 62 78
e 63 64
e 63 65
e 63 66
e 63 71
e 63 73
e 63 75
e 63 78
e 63 80
e 64 65
e 64 67
e 64 75
e 64 78
e 65 70
e 65 71
e 65 72
e 65 75
e 65 77
e 65 79
e 66 71
e 66 74
e 66 75
e 66 77
e 67 71
e 67 76
e 67 77
e 67 78
e 67 80
e 68 69
e 68 72
e 68 73
e 68 75
e 68 77
e 68 79
e 69 73
e 69 77
e 69 78
e 69 80
e 70 71
e 70 74
e 70 80
e 71 72
e 71 73
e 71 74
e 71 75
e 72 73
e 72 76
e 72 77
e 73 74
e 73 77
e 73 78
e 73 79
e 73 80
e 74 79
e 74 80
e 76 77
e 76 78
e 76 79
e 76 80
e 77 78
e 77 80
e 78 80
e 79 80